(set-info :smt-lib-version 2.6)
(set-logic QF_S)
(set-info :source |
Generated by: Murphy Berzish, Mitja Kulczynski, Federico Mora, Florin Manea, Joel Day, Dirk Nowotka, Vijay Ganesh, Zhengyang Lu
Generated on: 2020-10-01
Description: Translated from a collection of real-world regex queries, AutomataArk, collected by Loris D’Antoni and Fang Wang: https://github.com/lorisdanto/automatark
Application: Evaluate solvers on real-world regex queries
Target solver: Z3str3RE, CVC4, OSTRICH, Z3seq, Z3str3, Z3-Trau
Publications: Berzish, M., Kulczynski, M., Mora, F., Manea, F., Day, J. D., Nowotka, D., & Ganesh, V. (2021, July). An SMT solver for regular expressions and linear arithmetic over string length. In CAV 2021.
|)
(set-info :license "https://creativecommons.org/licenses/by/4.0/")
(set-info :category "industrial")
(set-info :status unknown)

(declare-const X String)
(assert (str.in_re X (re.++ (re.opt (re.++ (re.union (str.to_re "nntp") (str.to_re "sftp") (re.++ (str.to_re "ftp") (re.opt (str.to_re "s"))) (re.++ (str.to_re "http") (re.opt (str.to_re "s"))) (str.to_re "gopher") (str.to_re "news") (str.to_re "file") (str.to_re "telnet")) (str.to_re "://"))) (re.union (re.++ (re.* (re.union (re.range "a" "z") (re.range "A" "Z") (re.range "0" "9") (str.to_re ".") (str.to_re "_") (str.to_re "-"))) ((_ re.loop 1 6) (re.union (re.range "a" "z") (re.range "A" "Z"))) (re.union (re.range "a" "z") (re.range "A" "Z") (re.range "0" "9")) (str.to_re ".") (re.union (re.range "a" "z") (re.range "A" "Z") (re.range "0" "9"))) (re.++ ((_ re.loop 3 3) (re.++ ((_ re.loop 1 3) (re.range "0" "9")) (str.to_re "."))) ((_ re.loop 1 3) (re.range "0" "9")))) (re.opt (re.++ (str.to_re ":") (re.+ (re.range "0" "9")))) (re.opt (re.++ (str.to_re "/") (re.comp (str.to_re ":")) (re.* (re.union (str.to_re " ") (str.to_re "\u{9}") (str.to_re "\u{a}") (str.to_re "\u{c}") (str.to_re "\u{d}"))))) (str.to_re "\u{a}"))))
(assert (str.in_re X (re.++ ((_ re.loop 4 4) (re.range "0" "9")) (str.to_re ".") (re.union (re.++ (re.opt (str.to_re "0")) (re.range "1" "9")) (re.++ (str.to_re "1") (re.union (str.to_re "0") (str.to_re "1") (str.to_re "2")))) (str.to_re ".") (re.union (re.++ (re.opt (str.to_re "0")) (re.range "1" "9")) (re.++ (re.union (str.to_re "1") (str.to_re "2")) (re.range "0" "9")) (re.++ (str.to_re "3") (re.union (str.to_re "0") (str.to_re "1")))) (str.to_re ".") ((_ re.loop 2 2) (re.range "0" "9")) (str.to_re "\u{a}"))))
(assert (not (str.in_re X (re.++ (str.to_re "X-Spam-Level:") (re.union (str.to_re " ") (str.to_re "\u{9}") (str.to_re "\u{a}") (str.to_re "\u{c}") (str.to_re "\u{d}")) ((_ re.loop 11 11) (str.to_re "*")) (str.to_re "\u{a}")))))
(assert (not (str.in_re X (re.++ (str.to_re "6") ((_ re.loop 7 7) (re.range "0" "9")) (str.to_re "\u{a}")))))
(check-sat)

(exit)
